Route 1: 93 5 75 2 1 99 97 92 94 95 98 7 3 4 54 53 56 58 57 40 44 46 45 51 50 52 42 41 43 47 48

Route 2: 20 22 24 27 30 29 6 31 35 37 32 33 38 39 34 36 28 26 23 18 19 9 13 15 16 14 12 17 25 11 10 8 21

Route 3: 67 63 74 62 66 69 72 61 64 68 65 55 49 59 60 84 86 83 82 85 76 73 70 71 79 80 81 78 77 87 96

Route 4: 100 89 91 88 90

Vehicles: 4

Distance: 843.45

